array [1..3] of var 1..3: x;
constraint all_different(x);
constraint int_lin_eq([1, 1, 1], [x[1], x[2], x[3]], 6);
solve :: int_search([x[1], x[2], x[3]], first_fail, indomain_min, complete) satisfy;
